res/heu/pdp_100_mem_1.0/1.0_1.0/lrc102.txt
Vehicle 0
0 51 104 36 89 19 22 21 75 74 72 107 

Vehicle 1
0 49 102 31 14 84 15 68 67 107 

Vehicle 2
0 43 5 58 41 94 96 53 106 107 

Vehicle 3
0 16 13 69 12 66 17 65 70 50 103 107 

Vehicle 4
0 48 32 52 85 101 105 29 82 107 

Vehicle 5
0 23 18 71 42 95 76 107 

Vehicle 6
0 1 24 77 54 2 4 57 3 25 78 55 56 107 

Vehicle 7
0 33 44 9 62 10 97 86 63 39 92 107 

Vehicle 8
0 30 83 107 

Vehicle 9
0 45 98 38 91 11 27 64 80 107 

Vehicle 10
0 34 47 87 40 93 6 100 59 107 

Vehicle 12
0 7 26 60 8 61 46 79 37 90 99 107 

Vehicle 16
0 20 35 88 73 28 81 107 

Vehicle used: 13
Total Distance Traveled: 1563.5504554244733
Total Penalty of Delay: 0.0
Time Elasped: 6210
Vehicle 0 with capacity 200
			Node 0
		Load 0.0
		Time 0.0
		Delay 0.0
			Membership 1
			Time Window [0, 240]
			Load at node 0
			Service time at node 0
			Location (40, 50)
	Distance between 15.524174696260024
			Node 51
		Load 26.0
		Time 15.524174696260024
		Delay 0.0
			Membership 1
			Time Window [0, 214]
			Load at node 26
			Service time at node 0
			Location (55, 54)
	Distance between 0.0
			Node 104
		Load 0.0
		Time 15.524174696260024
		Delay 0.0
			Membership 1
			Time Window [0, 214]
			Load at node -26
			Service time at node 10
			Location (55, 54)
	Distance between 13.601470508735444
			Node 36
		Load 8.0
		Time 39.12564520499547
		Delay 0.0
			Membership 1
			Time Window [0, 202]
			Load at node 8
			Service time at node 0
			Location (63, 65)
	Distance between 0.0
			Node 89
		Load 0.0
		Time 39.12564520499547
		Delay 0.0
			Membership 1
			Time Window [0, 202]
			Load at node -8
			Service time at node 10
			Location (63, 65)
	Distance between 15.033296378372908
			Node 19
		Load 30.0
		Time 75.0
		Delay 0.0
			Membership 1
			Time Window [75, 105]
			Load at node 30
			Service time at node 10
			Location (62, 80)
	Distance between 6.4031242374328485
			Node 22
		Load 50.0
		Time 92.0
		Delay 0.0
			Membership 1
			Time Window [92, 122]
			Load at node 20
			Service time at node 10
			Location (58, 75)
	Distance between 10.198039027185569
			Node 21
		Load 80.0
		Time 112.19803902718557
		Delay 0.0
			Membership 1
			Time Window [85, 115]
			Load at node 30
			Service time at node 10
			Location (60, 85)
	Distance between 5.0
			Node 75
		Load 60.0
		Time 128.0
		Delay 0.0
			Membership 1
			Time Window [128, 158]
			Load at node -20
			Service time at node 10
			Location (55, 85)
	Distance between 12.0
			Node 74
		Load 30.0
		Time 150.0
		Delay 0.0
			Membership 1
			Time Window [139, 169]
			Load at node -30
			Service time at node 10
			Location (67, 85)
	Distance between 3.605551275463989
			Node 72
		Load 0.0
		Time 163.605551275464
		Delay 0.0
			Membership 1
			Time Window [0, 189]
			Load at node -30
			Service time at node 10
			Location (65, 82)
	Distance between 40.607881008493905
			Node 107
		Load 0.0
		Time 214.2134322839579
		Delay 0.0
			Membership 1
			Time Window [0, 240]
			Load at node 0
			Service time at node 0
			Location (40, 50)

Vehicle 1 with capacity 200
			Node 0
		Load 0.0
		Time 0.0
		Delay 0.0
			Membership 1
			Time Window [0, 240]
			Load at node 0
			Service time at node 0
			Location (40, 50)
	Distance between 14.7648230602334
			Node 49
		Load 14.0
		Time 14.7648230602334
		Delay 0.0
			Membership 1
			Time Window [14, 44]
			Load at node 14
			Service time at node 10
			Location (53, 43)
	Distance between 6.708203932499369
			Node 102
		Load 0.0
		Time 31.47302699273277
		Delay 0.0
			Membership 1
			Time Window [0, 209]
			Load at node -14
			Service time at node 10
			Location (56, 37)
	Distance between 9.219544457292887
			Node 31
		Load 3.0
		Time 52.0
		Delay 0.0
			Membership 1
			Time Window [52, 82]
			Load at node 3
			Service time at node 10
			Location (65, 35)
	Distance between 25.0
			Node 14
		Load 13.0
		Time 87.0
		Delay 0.0
			Membership 1
			Time Window [67, 97]
			Load at node 10
			Service time at node 10
			Location (90, 35)
	Distance between 5.385164807134504
			Node 84
		Load 10.0
		Time 102.3851648071345
		Delay 0.0
			Membership 1
			Time Window [74, 104]
			Load at node -3
			Service time at node 10
			Location (88, 30)
	Distance between 1.0
			Node 15
		Load 20.0
		Time 131.0
		Delay 0.0
			Membership 1
			Time Window [131, 161]
			Load at node 10
			Service time at node 0
			Location (87, 30)
	Distance between 0.0
			Node 68
		Load 10.0
		Time 131.0
		Delay 0.0
			Membership 1
			Time Window [131, 161]
			Load at node -10
			Service time at node 10
			Location (87, 30)
	Distance between 32.01562118716424
			Node 67
		Load 0.0
		Time 173.01562118716424
		Delay 0.0
			Membership 1
			Time Window [144, 174]
			Load at node -10
			Service time at node 10
			Location (67, 5)
	Distance between 52.478567053607705
			Node 107
		Load 0.0
		Time 235.49418824077196
		Delay 0.0
			Membership 1
			Time Window [0, 240]
			Load at node 0
			Service time at node 0
			Location (40, 50)

Vehicle 2 with capacity 200
			Node 0
		Load 0.0
		Time 0.0
		Delay 0.0
			Membership 1
			Time Window [0, 240]
			Load at node 0
			Service time at node 0
			Location (40, 50)
	Distance between 14.7648230602334
			Node 43
		Load 9.0
		Time 14.7648230602334
		Delay 0.0
			Membership 1
			Time Window [0, 215]
			Load at node 9
			Service time at node 10
			Location (27, 43)
	Distance between 19.235384061671343
			Node 5
		Load 49.0
		Time 59.0
		Delay 0.0
			Membership 1
			Time Window [59, 89]
			Load at node 40
			Service time at node 10
			Location (8, 40)
	Distance between 20.8806130178211
			Node 58
		Load 9.0
		Time 89.8806130178211
		Delay 0.0
			Membership 1
			Time Window [77, 107]
			Load at node -40
			Service time at node 10
			Location (2, 60)
	Distance between 8.94427190999916
			Node 41
		Load 39.0
		Time 108.82488492782026
		Delay 0.0
			Membership 1
			Time Window [89, 119]
			Load at node 30
			Service time at node 10
			Location (6, 68)
	Distance between 11.40175425099138
			Node 94
		Load 9.0
		Time 130.22663917881164
		Delay 0.0
			Membership 1
			Time Window [0, 194]
			Load at node -30
			Service time at node 10
			Location (15, 75)
	Distance between 21.213203435596427
			Node 96
		Load 0.0
		Time 161.43984261440806
		Delay 0.0
			Membership 1
			Time Window [140, 170]
			Load at node -9
			Service time at node 10
			Location (30, 60)
	Distance between 7.0710678118654755
			Node 53
		Load 3.0
		Time 180.0
		Delay 0.0
			Membership 1
			Time Window [180, 210]
			Load at node 3
			Service time at node 10
			Location (31, 67)
	Distance between 4.47213595499958
			Node 106
		Load 0.0
		Time 194.47213595499957
		Delay 0.0
			Membership 1
			Time Window [180, 210]
			Load at node -3
			Service time at node 10
			Location (35, 69)
	Distance between 19.6468827043885
			Node 107
		Load 0.0
		Time 224.11901865938808
		Delay 0.0
			Membership 1
			Time Window [0, 240]
			Load at node 0
			Service time at node 0
			Location (40, 50)

Vehicle 3 with capacity 200
			Node 0
		Load 0.0
		Time 0.0
		Delay 0.0
			Membership 1
			Time Window [0, 240]
			Load at node 0
			Service time at node 0
			Location (40, 50)
	Distance between 51.478150704935004
			Node 16
		Load 10.0
		Time 51.478150704935004
		Delay 0.0
			Membership 1
			Time Window [51, 81]
			Load at node 10
			Service time at node 10
			Location (85, 25)
	Distance between 8.602325267042627
			Node 13
		Load 20.0
		Time 70.08047597197763
		Delay 0.0
			Membership 1
			Time Window [62, 92]
			Load at node 10
			Service time at node 10
			Location (92, 30)
	Distance between 5.830951894845301
			Node 69
		Load 10.0
		Time 85.91142786682293
		Delay 0.0
			Membership 1
			Time Window [62, 92]
			Load at node -10
			Service time at node 10
			Location (95, 35)
	Distance between 5.0
			Node 12
		Load 40.0
		Time 100.91142786682293
		Delay 0.0
			Membership 1
			Time Window [0, 171]
			Load at node 30
			Service time at node 10
			Location (95, 30)
	Distance between 8.602325267042627
			Node 66
		Load 30.0
		Time 119.51375313386556
		Delay 0.0
			Membership 1
			Time Window [0, 179]
			Load at node -10
			Service time at node 10
			Location (88, 35)
	Distance between 3.0
			Node 17
		Load 60.0
		Time 132.51375313386558
		Delay 0.0
			Membership 1
			Time Window [0, 182]
			Load at node 30
			Service time at node 10
			Location (85, 35)
	Distance between 13.0
			Node 65
		Load 30.0
		Time 155.51375313386558
		Delay 0.0
			Membership 1
			Time Window [0, 194]
			Load at node -30
			Service time at node 10
			Location (72, 35)
	Distance between 20.248456731316587
			Node 70
		Load 0.0
		Time 185.76220986518217
		Delay 0.0
			Membership 1
			Time Window [178, 208]
			Load at node -30
			Service time at node 10
			Location (61, 52)
	Distance between 5.656854249492381
			Node 50
		Load 23.0
		Time 201.41906411467454
		Delay 0.0
			Membership 1
			Time Window [0, 212]
			Load at node 23
			Service time at node 10
			Location (57, 48)
	Distance between 10.04987562112089
			Node 103
		Load 0.0
		Time 221.46893973579543
		Delay 0.0
			Membership 1
			Time Window [192, 222]
			Load at node -23
			Service time at node 10
			Location (47, 47)
	Distance between 7.615773105863909
			Node 107
		Load 0.0
		Time 239.08471284165933
		Delay 0.0
			Membership 1
			Time Window [0, 240]
			Load at node 0
			Service time at node 0
			Location (40, 50)

Vehicle 4 with capacity 200
			Node 0
		Load 0.0
		Time 0.0
		Delay 0.0
			Membership 1
			Time Window [0, 240]
			Load at node 0
			Service time at node 0
			Location (40, 50)
	Distance between 12.041594578792296
			Node 48
		Load 13.0
		Time 12.041594578792296
		Delay 0.0
			Membership 1
			Time Window [0, 217]
			Load at node 13
			Service time at node 10
			Location (49, 42)
	Distance between 12.649110640673518
			Node 32
		Load 30.0
		Time 53.0
		Delay 0.0
			Membership 1
			Time Window [53, 83]
			Load at node 17
			Service time at node 10
			Location (45, 30)
	Distance between 19.6468827043885
			Node 52
		Load 45.0
		Time 82.6468827043885
		Delay 0.0
			Membership 1
			Time Window [77, 107]
			Load at node 15
			Service time at node 10
			Location (26, 35)
	Distance between 12.083045973594572
			Node 85
		Load 28.0
		Time 104.72992867798308
		Delay 0.0
			Membership 1
			Time Window [87, 117]
			Load at node -17
			Service time at node 10
			Location (21, 24)
	Distance between 9.055385138137417
			Node 101
		Load 15.0
		Time 123.78531381612049
		Delay 0.0
			Membership 1
			Time Window [96, 126]
			Load at node -13
			Service time at node 10
			Location (30, 25)
	Distance between 11.180339887498949
			Node 105
		Load 0.0
		Time 144.96565370361944
		Delay 0.0
			Membership 1
			Time Window [141, 171]
			Load at node -15
			Service time at node 10
			Location (20, 20)
	Distance between 10.0
			Node 29
		Load 19.0
		Time 164.96565370361944
		Delay 0.0
			Membership 1
			Time Window [0, 187]
			Load at node 19
			Service time at node 10
			Location (10, 20)
	Distance between 18.027756377319946
			Node 82
		Load 0.0
		Time 192.99341008093938
		Delay 0.0
			Membership 1
			Time Window [0, 205]
			Load at node -19
			Service time at node 10
			Location (25, 30)
	Distance between 25.0
			Node 107
		Load 0.0
		Time 227.99341008093938
		Delay 0.0
			Membership 1
			Time Window [0, 240]
			Load at node 0
			Service time at node 0
			Location (40, 50)

Vehicle 5 with capacity 200
			Node 0
		Load 0.0
		Time 0.0
		Delay 0.0
			Membership 1
			Time Window [0, 240]
			Load at node 0
			Service time at node 0
			Location (40, 50)
	Distance between 33.54101966249684
			Node 23
		Load 10.0
		Time 33.54101966249684
		Delay 0.0
			Membership 1
			Time Window [33, 63]
			Load at node 10
			Service time at node 10
			Location (55, 80)
	Distance between 11.180339887498949
			Node 18
		Load 50.0
		Time 54.721359549995796
		Delay 0.0
			Membership 1
			Time Window [43, 73]
			Load at node 40
			Service time at node 10
			Location (65, 85)
	Distance between 10.44030650891055
			Node 71
		Load 10.0
		Time 75.16166605890635
		Delay 0.0
			Membership 1
			Time Window [64, 94]
			Load at node -40
			Service time at node 10
			Location (55, 82)
	Distance between 24.73863375370596
			Node 42
		Load 20.0
		Time 109.9002998126123
		Delay 0.0
			Membership 1
			Time Window [86, 116]
			Load at node 10
			Service time at node 10
			Location (49, 58)
	Distance between 6.324555320336759
			Node 95
		Load 10.0
		Time 139.0
		Delay 0.0
			Membership 1
			Time Window [139, 169]
			Load at node -10
			Service time at node 10
			Location (55, 60)
	Distance between 15.0
			Node 76
		Load 0.0
		Time 164.0
		Delay 0.0
			Membership 1
			Time Window [144, 174]
			Load at node -10
			Service time at node 10
			Location (40, 60)
	Distance between 10.0
			Node 107
		Load 0.0
		Time 184.0
		Delay 0.0
			Membership 1
			Time Window [0, 240]
			Load at node 0
			Service time at node 0
			Location (40, 50)

Vehicle 6 with capacity 200
			Node 0
		Load 0.0
		Time 0.0
		Delay 0.0
			Membership 1
			Time Window [0, 240]
			Load at node 0
			Service time at node 0
			Location (40, 50)
	Distance between 30.805843601498726
			Node 1
		Load 30.0
		Time 30.805843601498726
		Delay 0.0
			Membership 1
			Time Window [0, 199]
			Load at node 30
			Service time at node 10
			Location (22, 75)
	Distance between 7.280109889280518
			Node 24
		Load 40.0
		Time 48.08595349077925
		Delay 0.0
			Membership 1
			Time Window [37, 67]
			Load at node 10
			Service time at node 10
			Location (20, 82)
	Distance between 5.830951894845301
			Node 77
		Load 30.0
		Time 63.916905385624545
		Delay 0.0
			Membership 1
			Time Window [0, 191]
			Load at node -10
			Service time at node 10
			Location (25, 85)
	Distance between 3.0
			Node 54
		Load 0.0
		Time 76.91690538562455
		Delay 0.0
			Membership 1
			Time Window [0, 190]
			Load at node -30
			Service time at node 10
			Location (22, 85)
	Distance between 2.0
			Node 2
		Load 20.0
		Time 88.91690538562455
		Delay 0.0
			Membership 1
			Time Window [0, 189]
			Load at node 20
			Service time at node 10
			Location (20, 85)
	Distance between 7.0710678118654755
			Node 4
		Load 30.0
		Time 105.98797319749002
		Delay 0.0
			Membership 1
			Time Window [91, 121]
			Load at node 10
			Service time at node 0
			Location (15, 80)
	Distance between 0.0
			Node 57
		Load 20.0
		Time 105.98797319749002
		Delay 0.0
			Membership 1
			Time Window [91, 121]
			Load at node -10
			Service time at node 10
			Location (15, 80)
	Distance between 5.830951894845301
			Node 3
		Load 40.0
		Time 121.81892509233532
		Delay 0.0
			Membership 1
			Time Window [95, 125]
			Load at node 20
			Service time at node 10
			Location (18, 75)
	Distance between 5.0
			Node 25
		Load 50.0
		Time 136.81892509233532
		Delay 0.0
			Membership 1
			Time Window [113, 143]
			Load at node 10
			Service time at node 10
			Location (18, 80)
	Distance between 2.0
			Node 78
		Load 40.0
		Time 148.81892509233532
		Delay 0.0
			Membership 1
			Time Window [141, 171]
			Load at node -10
			Service time at node 10
			Location (20, 80)
	Distance between 20.615528128088304
			Node 55
		Load 20.0
		Time 179.43445322042362
		Delay 0.0
			Membership 1
			Time Window [155, 185]
			Load at node -20
			Service time at node 10
			Location (15, 60)
	Distance between 13.601470508735444
			Node 56
		Load 0.0
		Time 203.03592372915907
		Delay 0.0
			Membership 1
			Time Window [0, 215]
			Load at node -20
			Service time at node 10
			Location (26, 52)
	Distance between 14.142135623730951
			Node 107
		Load 0.0
		Time 227.17805935289002
		Delay 0.0
			Membership 1
			Time Window [0, 240]
			Load at node 0
			Service time at node 0
			Location (40, 50)

Vehicle 7 with capacity 200
			Node 0
		Load 0.0
		Time 0.0
		Delay 0.0
			Membership 1
			Time Window [0, 240]
			Load at node 0
			Service time at node 0
			Location (40, 50)
	Distance between 11.180339887498949
			Node 33
		Load 16.0
		Time 11.180339887498949
		Delay 0.0
			Membership 1
			Time Window [11, 41]
			Load at node 16
			Service time at node 10
			Location (35, 40)
	Distance between 9.219544457292887
			Node 44
		Load 30.0
		Time 30.399884344791836
		Delay 0.0
			Membership 1
			Time Window [0, 210]
			Load at node 14
			Service time at node 10
			Location (37, 31)
	Distance between 21.587033144922902
			Node 9
		Load 70.0
		Time 72.0
		Delay 0.0
			Membership 1
			Time Window [72, 102]
			Load at node 40
			Service time at node 10
			Location (42, 10)
	Distance between 6.4031242374328485
			Node 62
		Load 30.0
		Time 88.40312423743285
		Delay 0.0
			Membership 1
			Time Window [65, 95]
			Load at node -40
			Service time at node 10
			Location (38, 5)
	Distance between 2.0
			Node 10
		Load 40.0
		Time 100.40312423743285
		Delay 0.0
			Membership 1
			Time Window [0, 185]
			Load at node 10
			Service time at node 10
			Location (40, 5)
	Distance between 4.0
			Node 97
		Load 26.0
		Time 114.40312423743285
		Delay 0.0
			Membership 1
			Time Window [87, 117]
			Load at node -14
			Service time at node 10
			Location (44, 5)
	Distance between 2.0
			Node 86
		Load 10.0
		Time 126.40312423743285
		Delay 0.0
			Membership 1
			Time Window [0, 184]
			Load at node -16
			Service time at node 10
			Location (42, 5)
	Distance between 7.0
			Node 63
		Load 0.0
		Time 154.0
		Delay 0.0
			Membership 1
			Time Window [154, 184]
			Load at node -10
			Service time at node 10
			Location (35, 5)
	Distance between 12.165525060596439
			Node 39
		Load 7.0
		Time 176.16552506059645
		Delay 0.0
			Membership 1
			Time Window [150, 180]
			Load at node 7
			Service time at node 0
			Location (23, 3)
	Distance between 0.0
			Node 92
		Load 0.0
		Time 176.16552506059645
		Delay 0.0
			Membership 1
			Time Window [150, 180]
			Load at node -7
			Service time at node 10
			Location (23, 3)
	Distance between 49.9799959983992
			Node 107
		Load 0.0
		Time 236.14552105899566
		Delay 0.0
			Membership 1
			Time Window [0, 240]
			Load at node 0
			Service time at node 0
			Location (40, 50)

Vehicle 8 with capacity 200
			Node 0
		Load 0.0
		Time 0.0
		Delay 0.0
			Membership 1
			Time Window [0, 240]
			Load at node 0
			Service time at node 0
			Location (40, 50)
	Distance between 15.811388300841896
			Node 30
		Load 9.0
		Time 66.0
		Delay 0.0
			Membership 1
			Time Window [66, 96]
			Load at node 9
			Service time at node 10
			Location (45, 65)
	Distance between 19.697715603592208
			Node 83
		Load 0.0
		Time 95.6977156035922
		Delay 0.0
			Membership 1
			Time Window [86, 116]
			Load at node -9
			Service time at node 10
			Location (37, 47)
	Distance between 4.242640687119285
			Node 107
		Load 0.0
		Time 109.94035629071149
		Delay 0.0
			Membership 1
			Time Window [0, 240]
			Load at node 0
			Service time at node 0
			Location (40, 50)

Vehicle 9 with capacity 200
			Node 0
		Load 0.0
		Time 0.0
		Delay 0.0
			Membership 1
			Time Window [0, 240]
			Load at node 0
			Service time at node 0
			Location (40, 50)
	Distance between 35.4682957019364
			Node 45
		Load 2.0
		Time 35.4682957019364
		Delay 0.0
			Membership 1
			Time Window [0, 194]
			Load at node 2
			Service time at node 10
			Location (63, 23)
	Distance between 3.605551275463989
			Node 98
		Load 0.0
		Time 49.073846977400386
		Delay 0.0
			Membership 1
			Time Window [39, 69]
			Load at node -2
			Service time at node 10
			Location (65, 20)
	Distance between 9.433981132056603
			Node 38
		Load 31.0
		Time 75.0
		Delay 0.0
			Membership 1
			Time Window [75, 105]
			Load at node 31
			Service time at node 10
			Location (60, 12)
	Distance between 9.433981132056603
			Node 91
		Load 0.0
		Time 94.4339811320566
		Delay 0.0
			Membership 1
			Time Window [83, 113]
			Load at node -31
			Service time at node 10
			Location (55, 20)
	Distance between 15.811388300841896
			Node 11
		Load 40.0
		Time 120.2453694328985
		Delay 0.0
			Membership 1
			Time Window [92, 122]
			Load at node 40
			Service time at node 10
			Location (40, 15)
	Distance between 3.605551275463989
			Node 27
		Load 50.0
		Time 133.85092070836248
		Delay 0.0
			Membership 1
			Time Window [104, 134]
			Load at node 10
			Service time at node 10
			Location (42, 12)
	Distance between 3.0
			Node 64
		Load 10.0
		Time 146.85092070836248
		Delay 0.0
			Membership 1
			Time Window [122, 152]
			Load at node -40
			Service time at node 10
			Location (42, 15)
	Distance between 4.0
			Node 80
		Load 0.0
		Time 160.85092070836248
		Delay 0.0
			Membership 1
			Time Window [148, 178]
			Load at node -10
			Service time at node 10
			Location (38, 15)
	Distance between 35.05709628591621
			Node 107
		Load 0.0
		Time 205.90801699427868
		Delay 0.0
			Membership 1
			Time Window [0, 240]
			Load at node 0
			Service time at node 0
			Location (40, 50)

Vehicle 10 with capacity 200
			Node 0
		Load 0.0
		Time 0.0
		Delay 0.0
			Membership 1
			Time Window [0, 240]
			Load at node 0
			Service time at node 0
			Location (40, 50)
	Distance between 9.219544457292887
			Node 34
		Load 27.0
		Time 41.0
		Delay 0.0
			Membership 1
			Time Window [41, 71]
			Load at node 27
			Service time at node 10
			Location (31, 52)
	Distance between 9.219544457292887
			Node 47
		Load 46.0
		Time 67.0
		Delay 0.0
			Membership 1
			Time Window [67, 97]
			Load at node 19
			Service time at node 10
			Location (24, 58)
	Distance between 8.94427190999916
			Node 87
		Load 19.0
		Time 91.0
		Delay 0.0
			Membership 1
			Time Window [91, 121]
			Load at node -27
			Service time at node 10
			Location (20, 50)
	Distance between 13.416407864998739
			Node 40
		Load 46.0
		Time 114.41640786499875
		Delay 0.0
			Membership 1
			Time Window [90, 120]
			Load at node 27
			Service time at node 10
			Location (8, 56)
	Distance between 16.1245154965971
			Node 93
		Load 19.0
		Time 140.54092336159584
		Delay 0.0
			Membership 1
			Time Window [119, 149]
			Load at node -27
			Service time at node 10
			Location (10, 40)
	Distance between 7.0710678118654755
			Node 6
		Load 29.0
		Time 157.61199117346132
		Delay 0.0
			Membership 1
			Time Window [142, 172]
			Load at node 10
			Service time at node 10
			Location (5, 35)
	Distance between 11.180339887498949
			Node 100
		Load 10.0
		Time 178.79233106096027
		Delay 0.0
			Membership 1
			Time Window [149, 179]
			Load at node -19
			Service time at node 10
			Location (0, 45)
	Distance between 8.0
			Node 59
		Load 0.0
		Time 196.79233106096027
		Delay 0.0
			Membership 1
			Time Window [0, 197]
			Load at node -10
			Service time at node 10
			Location (8, 45)
	Distance between 32.38826948140329
			Node 107
		Load 0.0
		Time 239.18060054236355
		Delay 0.0
			Membership 1
			Time Window [0, 240]
			Load at node 0
			Service time at node 0
			Location (40, 50)

Vehicle 12 with capacity 200
			Node 0
		Load 0.0
		Time 0.0
		Delay 0.0
			Membership 1
			Time Window [0, 240]
			Load at node 0
			Service time at node 0
			Location (40, 50)
	Distance between 35.35533905932738
			Node 7
		Load 10.0
		Time 35.35533905932738
		Delay 0.0
			Membership 1
			Time Window [35, 65]
			Load at node 10
			Service time at node 10
			Location (5, 45)
	Distance between 3.0
			Node 26
		Load 20.0
		Time 48.35533905932738
		Delay 0.0
			Membership 1
			Time Window [45, 75]
			Load at node 10
			Service time at node 10
			Location (2, 45)
	Distance between 5.0
			Node 60
		Load 10.0
		Time 63.35533905932738
		Delay 0.0
			Membership 1
			Time Window [58, 88]
			Load at node -10
			Service time at node 10
			Location (2, 40)
	Distance between 2.0
			Node 8
		Load 30.0
		Time 75.35533905932738
		Delay 0.0
			Membership 1
			Time Window [72, 102]
			Load at node 20
			Service time at node 10
			Location (0, 40)
	Distance between 11.180339887498949
			Node 61
		Load 10.0
		Time 96.53567894682632
		Delay 0.0
			Membership 1
			Time Window [91, 121]
			Load at node -20
			Service time at node 10
			Location (10, 35)
	Distance between 11.180339887498949
			Node 46
		Load 23.0
		Time 117.71601883432527
		Delay 0.0
			Membership 1
			Time Window [90, 120]
			Load at node 13
			Service time at node 10
			Location (12, 24)
	Distance between 10.0
			Node 79
		Load 13.0
		Time 137.71601883432527
		Delay 0.0
			Membership 1
			Time Window [120, 150]
			Load at node -10
			Service time at node 10
			Location (4, 18)
	Distance between 13.038404810405298
			Node 37
		Load 29.0
		Time 160.75442364473057
		Delay 0.0
			Membership 1
			Time Window [0, 172]
			Load at node 16
			Service time at node 0
			Location (5, 5)
	Distance between 0.0
			Node 90
		Load 13.0
		Time 160.75442364473057
		Delay 0.0
			Membership 1
			Time Window [0, 172]
			Load at node -16
			Service time at node 10
			Location (5, 5)
	Distance between 11.180339887498949
			Node 99
		Load 0.0
		Time 181.9347635322295
		Delay 0.0
			Membership 1
			Time Window [152, 182]
			Load at node -13
			Service time at node 10
			Location (15, 10)
	Distance between 47.16990566028302
			Node 107
		Load 0.0
		Time 239.10466919251252
		Delay 0.0
			Membership 1
			Time Window [0, 240]
			Load at node 0
			Service time at node 0
			Location (40, 50)

Vehicle 16 with capacity 200
			Node 0
		Load 0.0
		Time 0.0
		Delay 0.0
			Membership 1
			Time Window [0, 240]
			Load at node 0
			Service time at node 0
			Location (40, 50)
	Distance between 36.05551275463989
			Node 20
		Load 10.0
		Time 37.0
		Delay 0.0
			Membership 1
			Time Window [37, 67]
			Load at node 10
			Service time at node 10
			Location (60, 80)
	Distance between 25.495097567963924
			Node 35
		Load 24.0
		Time 72.49509756796392
		Delay 0.0
			Membership 1
			Time Window [65, 95]
			Load at node 14
			Service time at node 10
			Location (65, 55)
	Distance between 13.038404810405298
			Node 88
		Load 10.0
		Time 95.53350237836922
		Delay 0.0
			Membership 1
			Time Window [70, 100]
			Load at node -14
			Service time at node 10
			Location (64, 42)
	Distance between 14.7648230602334
			Node 73
		Load 0.0
		Time 120.29832543860262
		Delay 0.0
			Membership 1
			Time Window [96, 126]
			Load at node -10
			Service time at node 10
			Location (57, 29)
	Distance between 9.219544457292887
			Node 28
		Load 19.0
		Time 139.5178698958955
		Delay 0.0
			Membership 1
			Time Window [130, 160]
			Load at node 19
			Service time at node 10
			Location (50, 35)
	Distance between 9.219544457292887
			Node 81
		Load 0.0
		Time 158.7374143531884
		Delay 0.0
			Membership 1
			Time Window [133, 163]
			Load at node -19
			Service time at node 10
			Location (41, 37)
	Distance between 13.038404810405298
			Node 107
		Load 0.0
		Time 181.7758191635937
		Delay 0.0
			Membership 1
			Time Window [0, 240]
			Load at node 0
			Service time at node 0
			Location (40, 50)

